p cnf 60 140
1 2 3 0
4 5 6 0
7 8 9 0
10 11 12 0
13 14 15 0
16 17 18 0
19 20 21 0
22 23 24 0
25 26 27 0
28 29 30 0
31 32 33 0
34 35 36 0
37 38 39 0
40 41 42 0
43 44 45 0
46 47 48 0
49 50 51 0
52 53 54 0
55 56 57 0
58 59 60 0
-1 -2 0
-1 -3 0
-2 -3 0
-4 -5 0
-4 -6 0
-5 -6 0
-7 -8 0
-7 -9 0
-8 -9 0
-10 -11 0
-10 -12 0
-11 -12 0
-13 -14 0
-13 -15 0
-14 -15 0
-16 -17 0
-16 -18 0
-17 -18 0
-19 -20 0
-19 -21 0
-20 -21 0
-22 -23 0
-22 -24 0
-23 -24 0
-25 -26 0
-25 -27 0
-26 -27 0
-28 -29 0
-28 -30 0
-29 -30 0
-31 -32 0
-31 -33 0
-32 -33 0
-34 -35 0
-34 -36 0
-35 -36 0
-37 -38 0
-37 -39 0
-38 -39 0
-40 -41 0
-40 -42 0
-41 -42 0
-43 -44 0
-43 -45 0
-44 -45 0
-46 -47 0
-46 -48 0
-47 -48 0
-49 -50 0
-49 -51 0
-50 -51 0
-52 -53 0
-52 -54 0
-53 -54 0
-55 -56 0
-55 -57 0
-56 -57 0
-58 -59 0
-58 -60 0
-59 -60 0
-1 -10 0
-4 -28 0
-7 -31 0
-10 -1 0
-13 -22 0
-16 -22 0
-19 -28 0
-22 -13 0
-25 -40 0
-28 -4 0
-31 -7 0
-34 -10 0
-37 -4 0
-40 -7 0
-43 -37 0
-46 -49 0
-49 -19 0
-52 -1 0
-55 -43 0
-58 -25 0
-2 -11 0
-5 -29 0
-8 -32 0
-11 -2 0
-14 -23 0
-17 -23 0
-20 -29 0
-23 -14 0
-26 -41 0
-29 -5 0
-32 -8 0
-35 -11 0
-38 -5 0
-41 -8 0
-44 -38 0
-47 -50 0
-50 -20 0
-53 -2 0
-56 -44 0
-59 -26 0
-3 -12 0
-6 -30 0
-9 -33 0
-12 -3 0
-15 -24 0
-18 -24 0
-21 -30 0
-24 -15 0
-27 -42 0
-30 -6 0
-33 -9 0
-36 -12 0
-39 -6 0
-42 -9 0
-45 -39 0
-48 -51 0
-51 -21 0
-54 -3 0
-57 -45 0
-60 -27 0
